
List of user-set options:

                                    Name   Value                used
                         derivative_test = first-order           yes
                        file_print_level = 5                     yes
                   hessian_approximation = limited-memory        yes
                                  hsllib = /home/ggs24/packages/ThirdParty-HSL/.libs/libcoinhsl.so  yes
                           linear_solver = ma97                  yes
                                max_iter = 500                   yes
                             output_file = IPOPT.out             yes
                             print_level = 5                     yes
                      print_user_options = yes                   yes
                                      sb = yes                   yes
This is Ipopt version 3.14.7, running with linear solver ma97.

Starting derivative checker for first derivatives.

* jac_g [  199,    0] = -5.6767800970067358e-05 v  ~ -5.6754091263759644e-05  [ 1.371e-04]
* jac_g [  191,    1] = -5.8075065562895921e-05 v  ~ -5.8048660829668714e-05  [ 2.640e-04]
* jac_g [   30,    2] =  4.3967279053103651e-05 v  ~  4.3989714125346302e-05  [ 2.244e-04]
* jac_g [  214,    2] = -6.9478655575610723e-04 v  ~ -6.9488565673753210e-04  [ 1.426e-04]
* jac_g [  215,    2] = -1.1489938164505476e-04 v  ~ -1.1498855336307599e-04  [ 7.755e-04]
* jac_g [  216,    2] =  1.6213123650755391e-05 v  ~  1.6301365452444408e-05  [ 8.824e-04]
* jac_g [  215,    3] =  2.3835929528049436e-04 v  ~  2.3832524115163808e-04  [ 1.429e-04]
* jac_g [  216,    3] =  1.6903555541328049e-05 v  ~  1.6883322872364570e-05  [ 2.023e-04]
* jac_g [   64,    6] =  1.0381701449437771e-15 v  ~  2.1156816791953402e-08  [ 2.116e-04]
* jac_g [  188,    6] = -2.3660074933244689e-05 v  ~ -2.3676828747617185e-05  [ 1.675e-04]
* jac_g [  246,    6] =  7.5327348080916242e-05 v  ~  7.5299461719983480e-05  [ 2.789e-04]
* jac_g [  203,    9] = -5.3842766525676127e-05 v  ~ -5.3899960223579665e-05  [ 5.719e-04]
* jac_g [  219,   10] = -3.0282077744607651e-04 v  ~ -3.0274823582629982e-04  [ 2.396e-04]
* jac_g [   64,   11] =  1.3672663138274875e-15 v  ~ -1.1138164453948503e-08  [ 1.114e-04]
* jac_g [  218,   11] =  1.0019912297764903e-04 v  ~  1.0018407654178212e-04  [ 1.502e-04]
* jac_g [  233,   12] =  8.1196565238631969e-05 v  ~  8.1210375729163131e-05  [ 1.381e-04]
* jac_g [  233,   13] =  1.3149445418990602e-04 v  ~  1.3156143234760326e-04  [ 5.091e-04]
* jac_g [  234,   13] =  8.0276969404004923e-04 v  ~  8.0285706188946006e-04  [ 1.088e-04]
* jac_g [  130,   14] =  5.5511151231257827e-17 v  ~ -1.4011278311264536e-08  [ 1.401e-04]
* jac_g [  177,   14] =  1.4210854715202004e-14 v  ~ -4.0352481536441859e-06  [ 4.035e-02]

Derivative checker detected 20 error(s).

Number of nonzeros in equality constraint Jacobian...:       60
Number of nonzeros in inequality constraint Jacobian.:     3660
Number of nonzeros in Lagrangian Hessian.............:        0

Total number of variables............................:       15
                     variables with only lower bounds:        1
                variables with lower and upper bounds:        0
                     variables with only upper bounds:        0
Total number of equality constraints.................:        4
Total number of inequality constraints...............:      244
        inequality constraints with only lower bounds:       61
   inequality constraints with lower and upper bounds:      183
        inequality constraints with only upper bounds:        0

iter    objective    inf_pr   inf_du lg(mu)  ||d||  lg(rg) alpha_du alpha_pr  ls
   0  1.0000000e+01 2.29e+00 1.32e+00   0.0 0.00e+00    -  0.00e+00 0.00e+00   0
   1  1.0905445e+01 1.95e+00 9.00e+00  -0.6 6.21e+00    -  6.21e-01 1.46e-01f  1
   2  1.3900716e+01 1.11e+00 2.70e+01  -0.2 5.40e+00    -  7.80e-01 5.55e-01f  1
   3  2.0575227e+01 3.62e-01 6.38e-01  -0.6 6.67e+00    -  9.97e-01 1.00e+00f  1
   4  2.3498095e+01 7.14e-02 3.31e-01  -1.0 2.92e+00    -  9.96e-01 1.00e+00h  1
   5  2.2787411e+01 2.32e-02 1.51e-01  -2.5 1.20e+00    -  9.74e-01 1.00e+00h  1
   6  2.2449871e+01 1.08e-02 9.59e-02  -2.4 6.83e-01    -  1.00e+00 6.95e-01h  1
   7  2.2560099e+01 0.00e+00 2.88e-02  -2.8 1.10e-01    -  9.47e-01 1.00e+00h  1
   8  2.2497668e+01 1.05e-04 9.95e-03  -3.6 7.45e-02    -  9.96e-01 9.66e-01h  1
   9  2.2478342e+01 1.12e-04 5.86e-02  -4.3 5.30e-02    -  1.00e+00 9.49e-01h  1
iter    objective    inf_pr   inf_du lg(mu)  ||d||  lg(rg) alpha_du alpha_pr  ls
  10  2.2480516e+01 0.00e+00 6.82e-01  -4.0 4.40e-02    -  7.21e-01 1.00e+00h  1
  11  2.2475365e+01 7.56e-04 9.40e-01  -4.2 3.10e-01    -  9.17e-01 6.32e-01h  1
  12  2.2475747e+01 1.41e-05 2.31e-03  -4.3 6.46e-02    -  1.00e+00 1.00e+00h  1
  13  2.2474745e+01 8.43e-06 5.75e-01  -5.7 1.69e-02    -  1.00e+00 6.35e-01h  1
  14  2.2474707e+01 8.88e-16 1.97e-04  -5.1 7.98e-03    -  1.00e+00 1.00e+00h  1
  15  2.2474648e+01 6.55e-07 8.03e-01  -5.9 5.20e-03    -  9.98e-01 7.03e-01h  1
  16  2.2474627e+01 2.28e-08 3.07e-01  -6.7 5.24e-03    -  1.00e+00 7.62e-01h  1
  17  2.2474619e+01 7.82e-08 8.42e-05  -7.6 2.24e-03    -  1.00e+00 9.89e-01h  1
  18  2.2474619e+01 2.20e-10 7.74e-07  -9.6 2.74e-05    -  1.00e+00 9.93e-01h  1
  19  2.2474619e+01 0.00e+00 9.65e-09 -11.0 2.47e-06    -  1.00e+00 1.00e+00h  1

Number of Iterations....: 19

                                   (scaled)                 (unscaled)
Objective...............:   2.2474619275005175e+01    2.2474619275005175e+01
Dual infeasibility......:   9.6452129061397329e-09    9.6452129061397329e-09
Constraint violation....:   0.0000000000000000e+00    0.0000000000000000e+00
Variable bound violation:   0.0000000000000000e+00    0.0000000000000000e+00
Complementarity.........:   1.0323205434708035e-11    1.0323205434708035e-11
Overall NLP error.......:   9.6452129061397329e-09    9.6452129061397329e-09


Number of objective function evaluations             = 20
Number of objective gradient evaluations             = 20
Number of equality constraint evaluations            = 20
Number of inequality constraint evaluations          = 20
Number of equality constraint Jacobian evaluations   = 20
Number of inequality constraint Jacobian evaluations = 20
Number of Lagrangian Hessian evaluations             = 0
Total seconds in IPOPT                               = 4.419

EXIT: Optimal Solution Found.
